proyfinal/src/viki/013/experimentInOfficeAgust.take6.output/502f43ad-0e16-41fb-b919-c6e9c66faceb.als.out
Reading from standard input... Use '--help' for help.
============================[ Problem Statistics ]=============================
|                                                                             |
|  Number of variables:         87638                                         |
|  Number of clauses:          161767                                         |
|  Parse time:                   0.04 s                                       |
|                                                                             |
============================[ Search Statistics ]==============================
| Conflicts |          ORIGINAL         |          LEARNT          | Progress |
|           |    Vars  Clauses Literals |    Limit  Clauses Lit/Cl |          |
===============================================================================
|       100 |   63909   110656   276565 |    40573      100     20 | 27.076 % |
|       250 |   63908   110653   276559 |    44631      249     37 | 27.077 % |
|       475 |   63908   110653   276559 |    49094      474     56 | 27.077 % |
|       812 |   63908   110653   276559 |    54003      811     92 | 27.077 % |
|      1318 |   63907   110609   276469 |    59404     1314     81 | 27.078 % |
|      2077 |   53466    79921   200824 |    65344     2051     84 | 38.992 % |
|      3216 |   53083    78477   197368 |    71879     3163     80 | 39.429 % |
|      4924 |   52996    78175   196612 |    79066     4651     76 | 39.529 % |
|      7486 |   52941    78115   196470 |    86973     6345     70 | 39.591 % |
|     11330 |   52237    75525   190009 |    95671     9907     67 | 40.395 % |
|     17096 |   52151    75189   189268 |   105238    15655     66 | 40.493 % |
===============================================================================
restarts              : 63
conflicts             : 17689          (7096 /sec)
decisions             : 67227          (0.00 % random) (26967 /sec)
propagations          : 25750421       (10329309 /sec)
conflict literals     : 1155197        (48.22 % deleted)
Memory used           : 37.86 MB
CPU time              : 2.49295 s

INDETERMINATE
